\ENCODING=ISO-8859-1
\Problem name: ilog.cplex

Minimize
 obj: - 790.35 x1 - 790.35 x2 - 790.35 x3 - 790.35 x4 - 718.5 x5 - 718.5 x6
      - 718.5 x7 - 718.5 x8 - 696.9 x9 - 696.9 x10 - 696.9 x11 - 696.9 x12
      - 681.3 x13 - 681.3 x14 - 681.3 x15 - 681.3 x16 - 651.75 x17 - 651.75 x18
      - 651.75 x19 - 651.75 x20 - 628.65 x21 - 628.65 x22 - 628.65 x23
      - 628.65 x24 - 647.7 x25 - 647.7 x26 - 647.7 x27 - 647.7 x28 - 705.6 x29
      - 705.6 x30 - 705.6 x31 - 705.6 x32 - 767.4 x33 - 767.4 x34 - 767.4 x35
      - 767.4 x36 - 856.2 x37 - 856.2 x38 - 856.2 x39 - 856.2 x40 - 871.5 x41
      - 871.5 x42 - 871.5 x43 - 871.5 x44 - 894.6 x45 - 894.6 x46 - 894.6 x47
      - 894.6 x48 - 900.45 x49 - 900.45 x50 - 900.45 x51 - 900.45 x52
      - 796.65 x53 - 796.65 x54 - 796.65 x55 - 796.65 x56 - 763.95 x57
      - 763.95 x58 - 763.95 x59 - 763.95 x60 - 763.35 x61 - 763.35 x62
      - 763.35 x63 - 763.35 x64 - 826.05 x65 - 826.05 x66 - 826.05 x67
      - 826.05 x68 - 1065.75 x69 - 1065.75 x70 - 1065.75 x71 - 1065.75 x72
      - 1122.9 x73 - 1122.9 x74 - 1122.9 x75 - 1122.9 x76 - 1027.05 x77
      - 1027.05 x78 - 1027.05 x79 - 1027.05 x80 - 842.4 x81 - 842.4 x82
      - 842.4 x83 - 842.4 x84 - 760.35 x85 - 760.35 x86 - 760.35 x87
      - 760.35 x88 - 793.35 x89 - 793.35 x90 - 793.35 x91 - 793.35 x92
      - 770.55 x93 - 770.55 x94 - 770.55 x95 - 770.55 x96 + [ 0.01 x1 ^2
      + 0.01 x2 ^2 + 0.01 x3 ^2 + 0.01 x4 ^2 + 0.01 x5 ^2 + 0.01 x6 ^2
      + 0.01 x7 ^2 + 0.01 x8 ^2 + 0.01 x9 ^2 + 0.01 x10 ^2 + 0.01 x11 ^2
      + 0.01 x12 ^2 + 0.01 x13 ^2 + 0.01 x14 ^2 + 0.01 x15 ^2 + 0.01 x16 ^2
      + 0.01 x17 ^2 + 0.01 x18 ^2 + 0.01 x19 ^2 + 0.01 x20 ^2 + 0.01 x21 ^2
      + 0.01 x22 ^2 + 0.01 x23 ^2 + 0.01 x24 ^2 + 0.01 x25 ^2 + 0.01 x26 ^2
      + 0.01 x27 ^2 + 0.01 x28 ^2 + 0.01 x29 ^2 + 0.01 x30 ^2 + 0.01 x31 ^2
      + 0.01 x32 ^2 + 0.01 x33 ^2 + 0.01 x34 ^2 + 0.01 x35 ^2 + 0.01 x36 ^2
      + 0.01 x37 ^2 + 0.01 x38 ^2 + 0.01 x39 ^2 + 0.01 x40 ^2 + 0.01 x41 ^2
      + 0.01 x42 ^2 + 0.01 x43 ^2 + 0.01 x44 ^2 + 0.01 x45 ^2 + 0.01 x46 ^2
      + 0.01 x47 ^2 + 0.01 x48 ^2 + 0.01 x49 ^2 + 0.01 x50 ^2 + 0.01 x51 ^2
      + 0.01 x52 ^2 + 0.01 x53 ^2 + 0.01 x54 ^2 + 0.01 x55 ^2 + 0.01 x56 ^2
      + 0.01 x57 ^2 + 0.01 x58 ^2 + 0.01 x59 ^2 + 0.01 x60 ^2 + 0.01 x61 ^2
      + 0.01 x62 ^2 + 0.01 x63 ^2 + 0.01 x64 ^2 + 0.01 x65 ^2 + 0.01 x66 ^2
      + 0.01 x67 ^2 + 0.01 x68 ^2 + 0.01 x69 ^2 + 0.01 x70 ^2 + 0.01 x71 ^2
      + 0.01 x72 ^2 + 0.01 x73 ^2 + 0.01 x74 ^2 + 0.01 x75 ^2 + 0.01 x76 ^2
      + 0.01 x77 ^2 + 0.01 x78 ^2 + 0.01 x79 ^2 + 0.01 x80 ^2 + 0.01 x81 ^2
      + 0.01 x82 ^2 + 0.01 x83 ^2 + 0.01 x84 ^2 + 0.01 x85 ^2 + 0.01 x86 ^2
      + 0.01 x87 ^2 + 0.01 x88 ^2 + 0.01 x89 ^2 + 0.01 x90 ^2 + 0.01 x91 ^2
      + 0.01 x92 ^2 + 0.01 x93 ^2 + 0.01 x94 ^2 + 0.01 x95 ^2 + 0.01 x96 ^2
      ] / 2
Subject To
 c1:   x1 <= 100000
 c3:   x1 >= -1806
 c5:   x2 <= 100000
 c7:   x2 >= -1794
 c9:   x3 <= 100000
 c11:  x3 >= -1779
 c13:  x4 <= 100000
 c15:  x4 >= -1813
 c17:  x5 <= 100000
 c19:  x5 >= -1821
 c21:  x6 <= 100000
 c23:  x6 >= -1829
 c25:  x7 <= 100000
 c27:  x7 >= -1832
 c29:  x8 <= 100000
 c31:  x8 >= -1820
 c33:  x9 <= 100000
 c35:  x9 >= -1823
 c37:  x10 <= 100000
 c39:  x10 >= -1799
 c41:  x11 <= 100000
 c43:  x11 >= -1760
 c45:  x12 <= 100000
 c47:  x12 >= -1828
 c49:  x13 <= 100000
 c51:  x13 >= -1835
 c53:  x14 <= 100000
 c55:  x14 >= -1896
 c57:  x15 <= 100000
 c59:  x15 >= -1826
 c61:  x16 <= 100000
 c63:  x16 >= -1802
 c65:  x17 <= 100000
 c67:  x17 >= -1796
 c69:  x18 <= 100000
 c71:  x18 >= -1885
 c73:  x19 <= 100000
 c75:  x19 >= -1903
 c77:  x20 <= 100000
 c79:  x20 >= -1826
 c81:  x21 <= 100000
 c83:  x21 >= -1804
 c85:  x22 <= 100000
 c87:  x22 >= -1877
 c89:  x23 <= 100000
 c91:  x23 >= -1823
 c93:  x24 <= 100000
 c95:  x24 >= -1776
 c97:  x25 <= 100000
 c99:  x25 >= -1743
 c101: x26 <= 100000
 c103: x26 >= -1699
 c105: x27 <= 100000
 c107: x27 >= -1701
 c109: x28 <= 100000
 c111: x28 >= -1718
 c113: x29 <= 100000
 c115: x29 >= -1701
 c117: x30 <= 100000
 c119: x30 >= -1685
 c121: x31 <= 100000
 c123: x31 >= -1835
 c125: x32 <= 100000
 c127: x32 >= -2434
 c129: x33 <= 100000
 c131: x33 >= -3387
 c133: x34 <= 100000
 c135: x34 >= -4244
 c137: x35 <= 100000
 c139: x35 >= -5651
 c141: x36 <= 100000
 c143: x36 >= -7534
 c145: x37 <= 100000
 c147: x37 >= -7739
 c149: x38 <= 100000
 c151: x38 >= -8979
 c153: x39 <= 100000
 c155: x39 >= -9709
 c157: x40 <= 100000
 c159: x40 >= -13151
 c161: x41 <= 100000
 c163: x41 >= -14576
 c165: x42 <= 100000
 c167: x42 >= -15688
 c169: x43 <= 100000
 c171: x43 >= -15933
 c173: x44 <= 100000
 c175: x44 >= -17630
 c177: x45 <= 100000
 c179: x45 >= -18468
 c181: x46 <= 100000
 c183: x46 >= -18841
 c185: x47 <= 100000
 c187: x47 >= -19006
 c189: x48 <= 100000
 c191: x48 >= -19051
 c193: x49 <= 100000
 c195: x49 >= -18779
 c197: x50 <= 100000
 c199: x50 >= -18484
 c201: x51 <= 100000
 c203: x51 >= -18243
 c205: x52 <= 100000
 c207: x52 >= -17805
 c209: x53 <= 100000
 c211: x53 >= -17228
 c213: x54 <= 100000
 c215: x54 >= -16587
 c217: x55 <= 100000
 c219: x55 >= -15773
 c221: x56 <= 100000
 c223: x56 >= -14695
 c225: x57 <= 100000
 c227: x57 >= -12874
 c229: x58 <= 100000
 c231: x58 >= -9817
 c233: x59 <= 100000
 c235: x59 >= -6506
 c237: x60 <= 100000
 c239: x60 >= -4942
 c241: x61 <= 100000
 c243: x61 >= -4790
 c245: x62 <= 100000
 c247: x62 >= -5300
 c249: x63 <= 100000
 c251: x63 >= -4438
 c253: x64 <= 100000
 c255: x64 >= -3212
 c257: x65 <= 100000
 c259: x65 >= -2497
 c261: x66 <= 100000
 c263: x66 >= -1851
 c265: x67 <= 100000
 c267: x67 >= -1676
 c269: x68 <= 100000
 c271: x68 >= -1681
 c273: x69 <= 100000
 c275: x69 >= -1678
 c277: x70 <= 100000
 c279: x70 >= -1683
 c281: x71 <= 100000
 c283: x71 >= -1682
 c285: x72 <= 100000
 c287: x72 >= -1695
 c289: x73 <= 100000
 c291: x73 >= -1699
 c293: x74 <= 100000
 c295: x74 >= -1677
 c297: x75 <= 100000
 c299: x75 >= -1656
 c301: x76 <= 100000
 c303: x76 >= -1713
 c305: x77 <= 100000
 c307: x77 >= -1716
 c309: x78 <= 100000
 c311: x78 >= -1701
 c313: x79 <= 100000
 c315: x79 >= -1700
 c317: x80 <= 100000
 c319: x80 >= -1756
 c321: x81 <= 100000
 c323: x81 >= -1764
 c325: x82 <= 100000
 c327: x82 >= -1714
 c329: x83 <= 100000
 c331: x83 >= -1687
 c333: x84 <= 100000
 c335: x84 >= -1709
 c337: x85 <= 100000
 c339: x85 >= -1766
 c341: x86 <= 100000
 c343: x86 >= -1608
 c345: x87 <= 100000
 c347: x87 >= -1422
 c349: x88 <= 100000
 c351: x88 >= -1406
 c353: x89 <= 100000
 c355: x89 >= -1411
 c357: x90 <= 100000
 c359: x90 >= -1428
 c361: x91 <= 100000
 c363: x91 >= -1432
 c365: x92 <= 100000
 c367: x92 >= -1433
 c369: x93 <= 100000
 c371: x93 >= -1426
 c373: x94 <= 100000
 c375: x94 >= -1376
 c377: x95 <= 100000
 c379: x95 >= -1380
 c381: x96 <= 100000
 c383: x96 >= -1450
Bounds
      x1 >= 4.94065645841247e-324
      x2 >= 4.94065645841247e-324
      x3 >= 4.94065645841247e-324
      x4 >= 4.94065645841247e-324
      x5 >= 4.94065645841247e-324
      x6 >= 4.94065645841247e-324
      x7 >= 4.94065645841247e-324
      x8 >= 4.94065645841247e-324
      x9 >= 4.94065645841247e-324
      x10 >= 4.94065645841247e-324
      x11 >= 4.94065645841247e-324
      x12 >= 4.94065645841247e-324
      x13 >= 4.94065645841247e-324
      x14 >= 4.94065645841247e-324
      x15 >= 4.94065645841247e-324
      x16 >= 4.94065645841247e-324
      x17 >= 4.94065645841247e-324
      x18 >= 4.94065645841247e-324
      x19 >= 4.94065645841247e-324
      x20 >= 4.94065645841247e-324
      x21 >= 4.94065645841247e-324
      x22 >= 4.94065645841247e-324
      x23 >= 4.94065645841247e-324
      x24 >= 4.94065645841247e-324
      x25 >= 4.94065645841247e-324
      x26 >= 4.94065645841247e-324
      x27 >= 4.94065645841247e-324
      x28 >= 4.94065645841247e-324
      x29 >= 4.94065645841247e-324
      x30 >= 4.94065645841247e-324
      x31 >= 4.94065645841247e-324
      x32 >= 4.94065645841247e-324
      x33 >= 4.94065645841247e-324
      x34 >= 4.94065645841247e-324
      x35 >= 4.94065645841247e-324
      x36 >= 4.94065645841247e-324
      x37 >= 4.94065645841247e-324
      x38 >= 4.94065645841247e-324
      x39 >= 4.94065645841247e-324
      x40 >= 4.94065645841247e-324
      x41 >= 4.94065645841247e-324
      x42 >= 4.94065645841247e-324
      x43 >= 4.94065645841247e-324
      x44 >= 4.94065645841247e-324
      x45 >= 4.94065645841247e-324
      x46 >= 4.94065645841247e-324
      x47 >= 4.94065645841247e-324
      x48 >= 4.94065645841247e-324
      x49 >= 4.94065645841247e-324
      x50 >= 4.94065645841247e-324
      x51 >= 4.94065645841247e-324
      x52 >= 4.94065645841247e-324
      x53 >= 4.94065645841247e-324
      x54 >= 4.94065645841247e-324
      x55 >= 4.94065645841247e-324
      x56 >= 4.94065645841247e-324
      x57 >= 4.94065645841247e-324
      x58 >= 4.94065645841247e-324
      x59 >= 4.94065645841247e-324
      x60 >= 4.94065645841247e-324
      x61 >= 4.94065645841247e-324
      x62 >= 4.94065645841247e-324
      x63 >= 4.94065645841247e-324
      x64 >= 4.94065645841247e-324
      x65 >= 4.94065645841247e-324
      x66 >= 4.94065645841247e-324
      x67 >= 4.94065645841247e-324
      x68 >= 4.94065645841247e-324
      x69 >= 4.94065645841247e-324
      x70 >= 4.94065645841247e-324
      x71 >= 4.94065645841247e-324
      x72 >= 4.94065645841247e-324
      x73 >= 4.94065645841247e-324
      x74 >= 4.94065645841247e-324
      x75 >= 4.94065645841247e-324
      x76 >= 4.94065645841247e-324
      x77 >= 4.94065645841247e-324
      x78 >= 4.94065645841247e-324
      x79 >= 4.94065645841247e-324
      x80 >= 4.94065645841247e-324
      x81 >= 4.94065645841247e-324
      x82 >= 4.94065645841247e-324
      x83 >= 4.94065645841247e-324
      x84 >= 4.94065645841247e-324
      x85 >= 4.94065645841247e-324
      x86 >= 4.94065645841247e-324
      x87 >= 4.94065645841247e-324
      x88 >= 4.94065645841247e-324
      x89 >= 4.94065645841247e-324
      x90 >= 4.94065645841247e-324
      x91 >= 4.94065645841247e-324
      x92 >= 4.94065645841247e-324
      x93 >= 4.94065645841247e-324
      x94 >= 4.94065645841247e-324
      x95 >= 4.94065645841247e-324
      x96 >= 4.94065645841247e-324
End
